DIMENSION: 10
EDGE_WEIGHT_TYPE: EXPLICIT
EDGE_WEIGHT_FORMAT: FULL_MATRIX
EDGE_WEIGHT_SECTION:
32767 23 32767 59 6 32767 32767 32767 32767 21 
23 32767 1 19 32767 73 32767 32 32767 63 
32767 1 32767 32767 64 32767 30 12 25 98 
59 19 32767 32767 32767 32767 32767 32767 93 32767 
6 32767 64 32767 32767 82 32767 32767 32767 58 
32767 73 32767 32767 82 32767 32767 32767 32767 32767 
32767 32767 30 32767 32767 32767 32767 32767 29 96 
32767 32 12 32767 32767 32767 32767 32767 72 92 
32767 32767 25 93 32767 32767 29 72 32767 86 
21 63 98 32767 58 32767 96 92 86 32767 
EOF